
;this file is automatically generated: Mon Nov 02 10:36:08 CST 2020

;declarations generated

(declare-fun oclExcludes ( Int Int) Bool)
(declare-fun type_53c65c00_ae63_4f01_b857_9096a2c65356_Class54 ( Int) Bool)
(declare-fun type_53c65c00_ae63_4f01_b857_9096a2c65356_Class53 ( Int) Bool)
(declare-fun type_53c65c00_ae63_4f01_b857_9096a2c65356_Class55 ( Int) Bool)
(declare-fun type_53c65c00_ae63_4f01_b857_9096a2c65356_Class50 ( Int) Bool)
(declare-fun type_53c65c00_ae63_4f01_b857_9096a2c65356_Class52 ( Int) Bool)
(declare-fun type_53c65c00_ae63_4f01_b857_9096a2c65356_Class51 ( Int) Bool)
(declare-fun Cardinality ( Int) Int)
(declare-fun type_53c65c00_ae63_4f01_b857_9096a2c65356_Class32 ( Int) Bool)
(declare-fun type_53c65c00_ae63_4f01_b857_9096a2c65356_Class31 ( Int) Bool)
(declare-fun type_53c65c00_ae63_4f01_b857_9096a2c65356_Class34 ( Int) Bool)
(declare-fun type_53c65c00_ae63_4f01_b857_9096a2c65356_Class33 ( Int) Bool)
(declare-fun type_53c65c00_ae63_4f01_b857_9096a2c65356_Class30 ( Int) Bool)
(declare-fun type_53c65c00_ae63_4f01_b857_9096a2c65356_Class39 ( Int) Bool)
(declare-fun type_53c65c00_ae63_4f01_b857_9096a2c65356_Class36 ( Int) Bool)
(declare-fun type_53c65c00_ae63_4f01_b857_9096a2c65356_Class35 ( Int) Bool)
(declare-fun type_53c65c00_ae63_4f01_b857_9096a2c65356_Class38 ( Int) Bool)
(declare-fun type_53c65c00_ae63_4f01_b857_9096a2c65356_Class37 ( Int) Bool)
(declare-fun type_53c65c00_ae63_4f01_b857_9096a2c65356_Class43 ( Int) Bool)
(declare-fun type_53c65c00_ae63_4f01_b857_9096a2c65356_Class42 ( Int) Bool)
(declare-fun type_53c65c00_ae63_4f01_b857_9096a2c65356_Class45 ( Int) Bool)
(declare-fun type_53c65c00_ae63_4f01_b857_9096a2c65356_Class44 ( Int) Bool)
(declare-fun type_53c65c00_ae63_4f01_b857_9096a2c65356_Class41 ( Int) Bool)
(declare-fun type_53c65c00_ae63_4f01_b857_9096a2c65356_Class40 ( Int) Bool)
(declare-fun type_53c65c00_ae63_4f01_b857_9096a2c65356_Class47 ( Int) Bool)
(declare-fun type_53c65c00_ae63_4f01_b857_9096a2c65356_Class46 ( Int) Bool)
(declare-fun type_53c65c00_ae63_4f01_b857_9096a2c65356_Class49 ( Int) Bool)
(declare-fun type_53c65c00_ae63_4f01_b857_9096a2c65356_Class48 ( Int) Bool)
(declare-fun type_53c65c00_ae63_4f01_b857_9096a2c65356_Class3 ( Int) Bool)
(declare-fun type_53c65c00_ae63_4f01_b857_9096a2c65356_Class2 ( Int) Bool)
(declare-fun type_53c65c00_ae63_4f01_b857_9096a2c65356_Class5 ( Int) Bool)
(declare-fun type_53c65c00_ae63_4f01_b857_9096a2c65356_Class4 ( Int) Bool)
(declare-fun type_53c65c00_ae63_4f01_b857_9096a2c65356_Class1 ( Int) Bool)
(declare-fun type_53c65c00_ae63_4f01_b857_9096a2c65356_Class0 ( Int) Bool)
(declare-fun type_53c65c00_ae63_4f01_b857_9096a2c65356_Class7 ( Int) Bool)
(declare-fun type_53c65c00_ae63_4f01_b857_9096a2c65356_Class6 ( Int) Bool)
(declare-fun type_53c65c00_ae63_4f01_b857_9096a2c65356_Class9 ( Int) Bool)
(declare-fun type_53c65c00_ae63_4f01_b857_9096a2c65356_Class8 ( Int) Bool)
(declare-fun oclSelect ( Int Bool) Int)
(declare-fun obj_1e3885aa_8a19_4a51_9667_f2c1b1eccabc ( Int) Int)
(declare-fun class38_Class38IntAttr0 ( Int) Int)
(declare-fun type_53c65c00_ae63_4f01_b857_9096a2c65356_Class10 ( Int) Bool)
(declare-fun type_53c65c00_ae63_4f01_b857_9096a2c65356_Class12 ( Int) Bool)
(declare-fun type_53c65c00_ae63_4f01_b857_9096a2c65356_Class11 ( Int) Bool)
(declare-fun type_53c65c00_ae63_4f01_b857_9096a2c65356_Class18 ( Int) Bool)
(declare-fun type_53c65c00_ae63_4f01_b857_9096a2c65356_Class17 ( Int) Bool)
(declare-fun type_53c65c00_ae63_4f01_b857_9096a2c65356_Class19 ( Int) Bool)
(declare-fun type_53c65c00_ae63_4f01_b857_9096a2c65356_Class14 ( Int) Bool)
(declare-fun type_53c65c00_ae63_4f01_b857_9096a2c65356_Class13 ( Int) Bool)
(declare-fun type_53c65c00_ae63_4f01_b857_9096a2c65356_Class16 ( Int) Bool)
(declare-fun type_53c65c00_ae63_4f01_b857_9096a2c65356_Class15 ( Int) Bool)
(declare-fun type_53c65c00_ae63_4f01_b857_9096a2c65356_Class21 ( Int) Bool)
(declare-fun type_53c65c00_ae63_4f01_b857_9096a2c65356_Class20 ( Int) Bool)
(declare-fun type_53c65c00_ae63_4f01_b857_9096a2c65356_Class23 ( Int) Bool)
(declare-fun type_53c65c00_ae63_4f01_b857_9096a2c65356_Class22 ( Int) Bool)
(declare-fun Enum0 ( Int) Int)
(declare-fun Enum1 ( Int) Int)
(declare-fun type_53c65c00_ae63_4f01_b857_9096a2c65356_Class29 ( Int) Bool)
(declare-fun Enum2 ( Int) Int)
(declare-fun type_53c65c00_ae63_4f01_b857_9096a2c65356_Class28 ( Int) Bool)
(declare-fun type_53c65c00_ae63_4f01_b857_9096a2c65356_Class25 ( Int) Bool)
(declare-fun type_53c65c00_ae63_4f01_b857_9096a2c65356_Class24 ( Int) Bool)
(declare-fun type_53c65c00_ae63_4f01_b857_9096a2c65356_Class27 ( Int) Bool)
(declare-fun type_53c65c00_ae63_4f01_b857_9096a2c65356_Class26 ( Int) Bool)
(declare-fun container_ ( Int) Int)
(declare-fun oclIncludes ( Int Int) Bool)
(declare-fun ObjAt ( Int Int) Int)

;formula(s) generated
(assert (! (forall ((c1 Int)) (=> ( type_53c65c00_ae63_4f01_b857_9096a2c65356_Class38 c1 )  (not (= ( class38_Class38IntAttr0 ( obj_1e3885aa_8a19_4a51_9667_f2c1b1eccabc c1 )  )  12) ))):named l0))
(assert (! (exists ((o Int)) ( type_53c65c00_ae63_4f01_b857_9096a2c65356_Class0 ( obj_1e3885aa_8a19_4a51_9667_f2c1b1eccabc o )  ) ):named c0))
(assert (! (exists ((o Int)) (and (and (and (and (and ( type_53c65c00_ae63_4f01_b857_9096a2c65356_Class1 ( obj_1e3885aa_8a19_4a51_9667_f2c1b1eccabc o )  )  ( type_53c65c00_ae63_4f01_b857_9096a2c65356_Class45 ( obj_1e3885aa_8a19_4a51_9667_f2c1b1eccabc o )  ) ) ( type_53c65c00_ae63_4f01_b857_9096a2c65356_Class12 ( obj_1e3885aa_8a19_4a51_9667_f2c1b1eccabc o )  ) ) ( type_53c65c00_ae63_4f01_b857_9096a2c65356_Class33 ( obj_1e3885aa_8a19_4a51_9667_f2c1b1eccabc o )  ) ) ( type_53c65c00_ae63_4f01_b857_9096a2c65356_Class22 ( obj_1e3885aa_8a19_4a51_9667_f2c1b1eccabc o )  ) ) ( type_53c65c00_ae63_4f01_b857_9096a2c65356_Class39 ( obj_1e3885aa_8a19_4a51_9667_f2c1b1eccabc o )  ) )):named c1))
(assert (! (exists ((o Int)) (and (and (and (and (and (and (and (and (and ( type_53c65c00_ae63_4f01_b857_9096a2c65356_Class10 ( obj_1e3885aa_8a19_4a51_9667_f2c1b1eccabc o )  )  ( type_53c65c00_ae63_4f01_b857_9096a2c65356_Class45 ( obj_1e3885aa_8a19_4a51_9667_f2c1b1eccabc o )  ) ) ( type_53c65c00_ae63_4f01_b857_9096a2c65356_Class12 ( obj_1e3885aa_8a19_4a51_9667_f2c1b1eccabc o )  ) ) ( type_53c65c00_ae63_4f01_b857_9096a2c65356_Class55 ( obj_1e3885aa_8a19_4a51_9667_f2c1b1eccabc o )  ) ) ( type_53c65c00_ae63_4f01_b857_9096a2c65356_Class33 ( obj_1e3885aa_8a19_4a51_9667_f2c1b1eccabc o )  ) ) ( type_53c65c00_ae63_4f01_b857_9096a2c65356_Class22 ( obj_1e3885aa_8a19_4a51_9667_f2c1b1eccabc o )  ) ) ( type_53c65c00_ae63_4f01_b857_9096a2c65356_Class29 ( obj_1e3885aa_8a19_4a51_9667_f2c1b1eccabc o )  ) ) ( type_53c65c00_ae63_4f01_b857_9096a2c65356_Class39 ( obj_1e3885aa_8a19_4a51_9667_f2c1b1eccabc o )  ) ) ( type_53c65c00_ae63_4f01_b857_9096a2c65356_Class50 ( obj_1e3885aa_8a19_4a51_9667_f2c1b1eccabc o )  ) ) ( type_53c65c00_ae63_4f01_b857_9096a2c65356_Class41 ( obj_1e3885aa_8a19_4a51_9667_f2c1b1eccabc o )  ) )):named c2))
(assert (! (exists ((o Int)) ( type_53c65c00_ae63_4f01_b857_9096a2c65356_Class11 ( obj_1e3885aa_8a19_4a51_9667_f2c1b1eccabc o )  ) ):named c3))
(assert (! (exists ((o Int)) (and (and (and ( type_53c65c00_ae63_4f01_b857_9096a2c65356_Class12 ( obj_1e3885aa_8a19_4a51_9667_f2c1b1eccabc o )  )  ( type_53c65c00_ae63_4f01_b857_9096a2c65356_Class33 ( obj_1e3885aa_8a19_4a51_9667_f2c1b1eccabc o )  ) ) ( type_53c65c00_ae63_4f01_b857_9096a2c65356_Class22 ( obj_1e3885aa_8a19_4a51_9667_f2c1b1eccabc o )  ) ) ( type_53c65c00_ae63_4f01_b857_9096a2c65356_Class39 ( obj_1e3885aa_8a19_4a51_9667_f2c1b1eccabc o )  ) )):named c4))
(assert (! (exists ((o Int)) (and (and (and (and (and (and (and (and (and ( type_53c65c00_ae63_4f01_b857_9096a2c65356_Class13 ( obj_1e3885aa_8a19_4a51_9667_f2c1b1eccabc o )  )  ( type_53c65c00_ae63_4f01_b857_9096a2c65356_Class45 ( obj_1e3885aa_8a19_4a51_9667_f2c1b1eccabc o )  ) ) ( type_53c65c00_ae63_4f01_b857_9096a2c65356_Class12 ( obj_1e3885aa_8a19_4a51_9667_f2c1b1eccabc o )  ) ) ( type_53c65c00_ae63_4f01_b857_9096a2c65356_Class55 ( obj_1e3885aa_8a19_4a51_9667_f2c1b1eccabc o )  ) ) ( type_53c65c00_ae63_4f01_b857_9096a2c65356_Class33 ( obj_1e3885aa_8a19_4a51_9667_f2c1b1eccabc o )  ) ) ( type_53c65c00_ae63_4f01_b857_9096a2c65356_Class22 ( obj_1e3885aa_8a19_4a51_9667_f2c1b1eccabc o )  ) ) ( type_53c65c00_ae63_4f01_b857_9096a2c65356_Class29 ( obj_1e3885aa_8a19_4a51_9667_f2c1b1eccabc o )  ) ) ( type_53c65c00_ae63_4f01_b857_9096a2c65356_Class39 ( obj_1e3885aa_8a19_4a51_9667_f2c1b1eccabc o )  ) ) ( type_53c65c00_ae63_4f01_b857_9096a2c65356_Class50 ( obj_1e3885aa_8a19_4a51_9667_f2c1b1eccabc o )  ) ) ( type_53c65c00_ae63_4f01_b857_9096a2c65356_Class41 ( obj_1e3885aa_8a19_4a51_9667_f2c1b1eccabc o )  ) )):named c5))
(assert (! (exists ((o Int)) (and (and (and (and (and (and (and (and (and ( type_53c65c00_ae63_4f01_b857_9096a2c65356_Class14 ( obj_1e3885aa_8a19_4a51_9667_f2c1b1eccabc o )  )  ( type_53c65c00_ae63_4f01_b857_9096a2c65356_Class45 ( obj_1e3885aa_8a19_4a51_9667_f2c1b1eccabc o )  ) ) ( type_53c65c00_ae63_4f01_b857_9096a2c65356_Class12 ( obj_1e3885aa_8a19_4a51_9667_f2c1b1eccabc o )  ) ) ( type_53c65c00_ae63_4f01_b857_9096a2c65356_Class55 ( obj_1e3885aa_8a19_4a51_9667_f2c1b1eccabc o )  ) ) ( type_53c65c00_ae63_4f01_b857_9096a2c65356_Class33 ( obj_1e3885aa_8a19_4a51_9667_f2c1b1eccabc o )  ) ) ( type_53c65c00_ae63_4f01_b857_9096a2c65356_Class22 ( obj_1e3885aa_8a19_4a51_9667_f2c1b1eccabc o )  ) ) ( type_53c65c00_ae63_4f01_b857_9096a2c65356_Class29 ( obj_1e3885aa_8a19_4a51_9667_f2c1b1eccabc o )  ) ) ( type_53c65c00_ae63_4f01_b857_9096a2c65356_Class39 ( obj_1e3885aa_8a19_4a51_9667_f2c1b1eccabc o )  ) ) ( type_53c65c00_ae63_4f01_b857_9096a2c65356_Class50 ( obj_1e3885aa_8a19_4a51_9667_f2c1b1eccabc o )  ) ) ( type_53c65c00_ae63_4f01_b857_9096a2c65356_Class41 ( obj_1e3885aa_8a19_4a51_9667_f2c1b1eccabc o )  ) )):named c6))
(assert (! (exists ((o Int)) ( type_53c65c00_ae63_4f01_b857_9096a2c65356_Class15 ( obj_1e3885aa_8a19_4a51_9667_f2c1b1eccabc o )  ) ):named c7))
(assert (! (exists ((o Int)) (and (and (and (and (and ( type_53c65c00_ae63_4f01_b857_9096a2c65356_Class16 ( obj_1e3885aa_8a19_4a51_9667_f2c1b1eccabc o )  )  ( type_53c65c00_ae63_4f01_b857_9096a2c65356_Class45 ( obj_1e3885aa_8a19_4a51_9667_f2c1b1eccabc o )  ) ) ( type_53c65c00_ae63_4f01_b857_9096a2c65356_Class12 ( obj_1e3885aa_8a19_4a51_9667_f2c1b1eccabc o )  ) ) ( type_53c65c00_ae63_4f01_b857_9096a2c65356_Class33 ( obj_1e3885aa_8a19_4a51_9667_f2c1b1eccabc o )  ) ) ( type_53c65c00_ae63_4f01_b857_9096a2c65356_Class22 ( obj_1e3885aa_8a19_4a51_9667_f2c1b1eccabc o )  ) ) ( type_53c65c00_ae63_4f01_b857_9096a2c65356_Class39 ( obj_1e3885aa_8a19_4a51_9667_f2c1b1eccabc o )  ) )):named c8))
(assert (! (exists ((o Int)) ( type_53c65c00_ae63_4f01_b857_9096a2c65356_Class17 ( obj_1e3885aa_8a19_4a51_9667_f2c1b1eccabc o )  ) ):named c9))
(assert (! (exists ((o Int)) (and (and (and ( type_53c65c00_ae63_4f01_b857_9096a2c65356_Class18 ( obj_1e3885aa_8a19_4a51_9667_f2c1b1eccabc o )  )  ( type_53c65c00_ae63_4f01_b857_9096a2c65356_Class25 ( obj_1e3885aa_8a19_4a51_9667_f2c1b1eccabc o )  ) ) ( type_53c65c00_ae63_4f01_b857_9096a2c65356_Class24 ( obj_1e3885aa_8a19_4a51_9667_f2c1b1eccabc o )  ) ) ( type_53c65c00_ae63_4f01_b857_9096a2c65356_Class39 ( obj_1e3885aa_8a19_4a51_9667_f2c1b1eccabc o )  ) )):named c10))
(assert (! (exists ((o Int)) (and (and (and (and (and (and (and (and (and ( type_53c65c00_ae63_4f01_b857_9096a2c65356_Class19 ( obj_1e3885aa_8a19_4a51_9667_f2c1b1eccabc o )  )  ( type_53c65c00_ae63_4f01_b857_9096a2c65356_Class45 ( obj_1e3885aa_8a19_4a51_9667_f2c1b1eccabc o )  ) ) ( type_53c65c00_ae63_4f01_b857_9096a2c65356_Class12 ( obj_1e3885aa_8a19_4a51_9667_f2c1b1eccabc o )  ) ) ( type_53c65c00_ae63_4f01_b857_9096a2c65356_Class55 ( obj_1e3885aa_8a19_4a51_9667_f2c1b1eccabc o )  ) ) ( type_53c65c00_ae63_4f01_b857_9096a2c65356_Class33 ( obj_1e3885aa_8a19_4a51_9667_f2c1b1eccabc o )  ) ) ( type_53c65c00_ae63_4f01_b857_9096a2c65356_Class22 ( obj_1e3885aa_8a19_4a51_9667_f2c1b1eccabc o )  ) ) ( type_53c65c00_ae63_4f01_b857_9096a2c65356_Class29 ( obj_1e3885aa_8a19_4a51_9667_f2c1b1eccabc o )  ) ) ( type_53c65c00_ae63_4f01_b857_9096a2c65356_Class39 ( obj_1e3885aa_8a19_4a51_9667_f2c1b1eccabc o )  ) ) ( type_53c65c00_ae63_4f01_b857_9096a2c65356_Class50 ( obj_1e3885aa_8a19_4a51_9667_f2c1b1eccabc o )  ) ) ( type_53c65c00_ae63_4f01_b857_9096a2c65356_Class41 ( obj_1e3885aa_8a19_4a51_9667_f2c1b1eccabc o )  ) )):named c11))
(assert (! (exists ((o Int)) ( type_53c65c00_ae63_4f01_b857_9096a2c65356_Class2 ( obj_1e3885aa_8a19_4a51_9667_f2c1b1eccabc o )  ) ):named c12))
(assert (! (exists ((o Int)) ( type_53c65c00_ae63_4f01_b857_9096a2c65356_Class20 ( obj_1e3885aa_8a19_4a51_9667_f2c1b1eccabc o )  ) ):named c13))
(assert (! (exists ((o Int)) (and (and (and (and (and (and (and (and (and ( type_53c65c00_ae63_4f01_b857_9096a2c65356_Class21 ( obj_1e3885aa_8a19_4a51_9667_f2c1b1eccabc o )  )  ( type_53c65c00_ae63_4f01_b857_9096a2c65356_Class45 ( obj_1e3885aa_8a19_4a51_9667_f2c1b1eccabc o )  ) ) ( type_53c65c00_ae63_4f01_b857_9096a2c65356_Class12 ( obj_1e3885aa_8a19_4a51_9667_f2c1b1eccabc o )  ) ) ( type_53c65c00_ae63_4f01_b857_9096a2c65356_Class33 ( obj_1e3885aa_8a19_4a51_9667_f2c1b1eccabc o )  ) ) ( type_53c65c00_ae63_4f01_b857_9096a2c65356_Class22 ( obj_1e3885aa_8a19_4a51_9667_f2c1b1eccabc o )  ) ) ( type_53c65c00_ae63_4f01_b857_9096a2c65356_Class16 ( obj_1e3885aa_8a19_4a51_9667_f2c1b1eccabc o )  ) ) ( type_53c65c00_ae63_4f01_b857_9096a2c65356_Class29 ( obj_1e3885aa_8a19_4a51_9667_f2c1b1eccabc o )  ) ) ( type_53c65c00_ae63_4f01_b857_9096a2c65356_Class39 ( obj_1e3885aa_8a19_4a51_9667_f2c1b1eccabc o )  ) ) ( type_53c65c00_ae63_4f01_b857_9096a2c65356_Class41 ( obj_1e3885aa_8a19_4a51_9667_f2c1b1eccabc o )  ) ) ( type_53c65c00_ae63_4f01_b857_9096a2c65356_Class51 ( obj_1e3885aa_8a19_4a51_9667_f2c1b1eccabc o )  ) )):named c14))
(assert (! (exists ((o Int)) (and ( type_53c65c00_ae63_4f01_b857_9096a2c65356_Class22 ( obj_1e3885aa_8a19_4a51_9667_f2c1b1eccabc o )  )  ( type_53c65c00_ae63_4f01_b857_9096a2c65356_Class39 ( obj_1e3885aa_8a19_4a51_9667_f2c1b1eccabc o )  ) )):named c15))
(assert (! (exists ((o Int)) (and (and (and (and ( type_53c65c00_ae63_4f01_b857_9096a2c65356_Class23 ( obj_1e3885aa_8a19_4a51_9667_f2c1b1eccabc o )  )  ( type_53c65c00_ae63_4f01_b857_9096a2c65356_Class25 ( obj_1e3885aa_8a19_4a51_9667_f2c1b1eccabc o )  ) ) ( type_53c65c00_ae63_4f01_b857_9096a2c65356_Class24 ( obj_1e3885aa_8a19_4a51_9667_f2c1b1eccabc o )  ) ) ( type_53c65c00_ae63_4f01_b857_9096a2c65356_Class39 ( obj_1e3885aa_8a19_4a51_9667_f2c1b1eccabc o )  ) ) ( type_53c65c00_ae63_4f01_b857_9096a2c65356_Class5 ( obj_1e3885aa_8a19_4a51_9667_f2c1b1eccabc o )  ) )):named c16))
(assert (! (exists ((o Int)) (and (and ( type_53c65c00_ae63_4f01_b857_9096a2c65356_Class24 ( obj_1e3885aa_8a19_4a51_9667_f2c1b1eccabc o )  )  ( type_53c65c00_ae63_4f01_b857_9096a2c65356_Class25 ( obj_1e3885aa_8a19_4a51_9667_f2c1b1eccabc o )  ) ) ( type_53c65c00_ae63_4f01_b857_9096a2c65356_Class39 ( obj_1e3885aa_8a19_4a51_9667_f2c1b1eccabc o )  ) )):named c17))
(assert (! (exists ((o Int)) (and ( type_53c65c00_ae63_4f01_b857_9096a2c65356_Class25 ( obj_1e3885aa_8a19_4a51_9667_f2c1b1eccabc o )  )  ( type_53c65c00_ae63_4f01_b857_9096a2c65356_Class39 ( obj_1e3885aa_8a19_4a51_9667_f2c1b1eccabc o )  ) )):named c18))
(assert (! (exists ((o Int)) ( type_53c65c00_ae63_4f01_b857_9096a2c65356_Class26 ( obj_1e3885aa_8a19_4a51_9667_f2c1b1eccabc o )  ) ):named c19))
(assert (! (exists ((o Int)) ( type_53c65c00_ae63_4f01_b857_9096a2c65356_Class27 ( obj_1e3885aa_8a19_4a51_9667_f2c1b1eccabc o )  ) ):named c20))
(assert (! (exists ((o Int)) (and (and (and (and (and (and (and ( type_53c65c00_ae63_4f01_b857_9096a2c65356_Class28 ( obj_1e3885aa_8a19_4a51_9667_f2c1b1eccabc o )  )  ( type_53c65c00_ae63_4f01_b857_9096a2c65356_Class45 ( obj_1e3885aa_8a19_4a51_9667_f2c1b1eccabc o )  ) ) ( type_53c65c00_ae63_4f01_b857_9096a2c65356_Class12 ( obj_1e3885aa_8a19_4a51_9667_f2c1b1eccabc o )  ) ) ( type_53c65c00_ae63_4f01_b857_9096a2c65356_Class33 ( obj_1e3885aa_8a19_4a51_9667_f2c1b1eccabc o )  ) ) ( type_53c65c00_ae63_4f01_b857_9096a2c65356_Class22 ( obj_1e3885aa_8a19_4a51_9667_f2c1b1eccabc o )  ) ) ( type_53c65c00_ae63_4f01_b857_9096a2c65356_Class29 ( obj_1e3885aa_8a19_4a51_9667_f2c1b1eccabc o )  ) ) ( type_53c65c00_ae63_4f01_b857_9096a2c65356_Class39 ( obj_1e3885aa_8a19_4a51_9667_f2c1b1eccabc o )  ) ) ( type_53c65c00_ae63_4f01_b857_9096a2c65356_Class41 ( obj_1e3885aa_8a19_4a51_9667_f2c1b1eccabc o )  ) )):named c21))
(assert (! (exists ((o Int)) (and (and (and (and (and (and ( type_53c65c00_ae63_4f01_b857_9096a2c65356_Class29 ( obj_1e3885aa_8a19_4a51_9667_f2c1b1eccabc o )  )  ( type_53c65c00_ae63_4f01_b857_9096a2c65356_Class45 ( obj_1e3885aa_8a19_4a51_9667_f2c1b1eccabc o )  ) ) ( type_53c65c00_ae63_4f01_b857_9096a2c65356_Class12 ( obj_1e3885aa_8a19_4a51_9667_f2c1b1eccabc o )  ) ) ( type_53c65c00_ae63_4f01_b857_9096a2c65356_Class33 ( obj_1e3885aa_8a19_4a51_9667_f2c1b1eccabc o )  ) ) ( type_53c65c00_ae63_4f01_b857_9096a2c65356_Class22 ( obj_1e3885aa_8a19_4a51_9667_f2c1b1eccabc o )  ) ) ( type_53c65c00_ae63_4f01_b857_9096a2c65356_Class39 ( obj_1e3885aa_8a19_4a51_9667_f2c1b1eccabc o )  ) ) ( type_53c65c00_ae63_4f01_b857_9096a2c65356_Class41 ( obj_1e3885aa_8a19_4a51_9667_f2c1b1eccabc o )  ) )):named c22))
(assert (! (exists ((o Int)) (and (and (and ( type_53c65c00_ae63_4f01_b857_9096a2c65356_Class3 ( obj_1e3885aa_8a19_4a51_9667_f2c1b1eccabc o )  )  ( type_53c65c00_ae63_4f01_b857_9096a2c65356_Class25 ( obj_1e3885aa_8a19_4a51_9667_f2c1b1eccabc o )  ) ) ( type_53c65c00_ae63_4f01_b857_9096a2c65356_Class24 ( obj_1e3885aa_8a19_4a51_9667_f2c1b1eccabc o )  ) ) ( type_53c65c00_ae63_4f01_b857_9096a2c65356_Class39 ( obj_1e3885aa_8a19_4a51_9667_f2c1b1eccabc o )  ) )):named c23))
(assert (! (exists ((o Int)) (and ( type_53c65c00_ae63_4f01_b857_9096a2c65356_Class30 ( obj_1e3885aa_8a19_4a51_9667_f2c1b1eccabc o )  )  ( type_53c65c00_ae63_4f01_b857_9096a2c65356_Class39 ( obj_1e3885aa_8a19_4a51_9667_f2c1b1eccabc o )  ) )):named c24))
(assert (! (exists ((o Int)) (and (and (and (and (and ( type_53c65c00_ae63_4f01_b857_9096a2c65356_Class31 ( obj_1e3885aa_8a19_4a51_9667_f2c1b1eccabc o )  )  ( type_53c65c00_ae63_4f01_b857_9096a2c65356_Class45 ( obj_1e3885aa_8a19_4a51_9667_f2c1b1eccabc o )  ) ) ( type_53c65c00_ae63_4f01_b857_9096a2c65356_Class12 ( obj_1e3885aa_8a19_4a51_9667_f2c1b1eccabc o )  ) ) ( type_53c65c00_ae63_4f01_b857_9096a2c65356_Class33 ( obj_1e3885aa_8a19_4a51_9667_f2c1b1eccabc o )  ) ) ( type_53c65c00_ae63_4f01_b857_9096a2c65356_Class22 ( obj_1e3885aa_8a19_4a51_9667_f2c1b1eccabc o )  ) ) ( type_53c65c00_ae63_4f01_b857_9096a2c65356_Class39 ( obj_1e3885aa_8a19_4a51_9667_f2c1b1eccabc o )  ) )):named c25))
(assert (! (exists ((o Int)) ( type_53c65c00_ae63_4f01_b857_9096a2c65356_Class32 ( obj_1e3885aa_8a19_4a51_9667_f2c1b1eccabc o )  ) ):named c26))
(assert (! (exists ((o Int)) (and (and ( type_53c65c00_ae63_4f01_b857_9096a2c65356_Class33 ( obj_1e3885aa_8a19_4a51_9667_f2c1b1eccabc o )  )  ( type_53c65c00_ae63_4f01_b857_9096a2c65356_Class22 ( obj_1e3885aa_8a19_4a51_9667_f2c1b1eccabc o )  ) ) ( type_53c65c00_ae63_4f01_b857_9096a2c65356_Class39 ( obj_1e3885aa_8a19_4a51_9667_f2c1b1eccabc o )  ) )):named c27))
(assert (! (exists ((o Int)) (and (and (and ( type_53c65c00_ae63_4f01_b857_9096a2c65356_Class34 ( obj_1e3885aa_8a19_4a51_9667_f2c1b1eccabc o )  )  ( type_53c65c00_ae63_4f01_b857_9096a2c65356_Class25 ( obj_1e3885aa_8a19_4a51_9667_f2c1b1eccabc o )  ) ) ( type_53c65c00_ae63_4f01_b857_9096a2c65356_Class24 ( obj_1e3885aa_8a19_4a51_9667_f2c1b1eccabc o )  ) ) ( type_53c65c00_ae63_4f01_b857_9096a2c65356_Class39 ( obj_1e3885aa_8a19_4a51_9667_f2c1b1eccabc o )  ) )):named c28))
(assert (! (exists ((o Int)) (and (and ( type_53c65c00_ae63_4f01_b857_9096a2c65356_Class35 ( obj_1e3885aa_8a19_4a51_9667_f2c1b1eccabc o )  )  ( type_53c65c00_ae63_4f01_b857_9096a2c65356_Class39 ( obj_1e3885aa_8a19_4a51_9667_f2c1b1eccabc o )  ) ) ( type_53c65c00_ae63_4f01_b857_9096a2c65356_Class30 ( obj_1e3885aa_8a19_4a51_9667_f2c1b1eccabc o )  ) )):named c29))
(assert (! (exists ((o Int)) ( type_53c65c00_ae63_4f01_b857_9096a2c65356_Class36 ( obj_1e3885aa_8a19_4a51_9667_f2c1b1eccabc o )  ) ):named c30))
(assert (! (exists ((o Int)) ( type_53c65c00_ae63_4f01_b857_9096a2c65356_Class37 ( obj_1e3885aa_8a19_4a51_9667_f2c1b1eccabc o )  ) ):named c31))
(assert (! (exists ((o Int)) ( type_53c65c00_ae63_4f01_b857_9096a2c65356_Class38 ( obj_1e3885aa_8a19_4a51_9667_f2c1b1eccabc o )  ) ):named c32))
(assert (! (exists ((o Int)) ( type_53c65c00_ae63_4f01_b857_9096a2c65356_Class39 ( obj_1e3885aa_8a19_4a51_9667_f2c1b1eccabc o )  ) ):named c33))
(assert (! (exists ((o Int)) ( type_53c65c00_ae63_4f01_b857_9096a2c65356_Class4 ( obj_1e3885aa_8a19_4a51_9667_f2c1b1eccabc o )  ) ):named c34))
(assert (! (exists ((o Int)) (and (and (and (and (and (and (and (and (and ( type_53c65c00_ae63_4f01_b857_9096a2c65356_Class40 ( obj_1e3885aa_8a19_4a51_9667_f2c1b1eccabc o )  )  ( type_53c65c00_ae63_4f01_b857_9096a2c65356_Class45 ( obj_1e3885aa_8a19_4a51_9667_f2c1b1eccabc o )  ) ) ( type_53c65c00_ae63_4f01_b857_9096a2c65356_Class12 ( obj_1e3885aa_8a19_4a51_9667_f2c1b1eccabc o )  ) ) ( type_53c65c00_ae63_4f01_b857_9096a2c65356_Class55 ( obj_1e3885aa_8a19_4a51_9667_f2c1b1eccabc o )  ) ) ( type_53c65c00_ae63_4f01_b857_9096a2c65356_Class33 ( obj_1e3885aa_8a19_4a51_9667_f2c1b1eccabc o )  ) ) ( type_53c65c00_ae63_4f01_b857_9096a2c65356_Class22 ( obj_1e3885aa_8a19_4a51_9667_f2c1b1eccabc o )  ) ) ( type_53c65c00_ae63_4f01_b857_9096a2c65356_Class29 ( obj_1e3885aa_8a19_4a51_9667_f2c1b1eccabc o )  ) ) ( type_53c65c00_ae63_4f01_b857_9096a2c65356_Class39 ( obj_1e3885aa_8a19_4a51_9667_f2c1b1eccabc o )  ) ) ( type_53c65c00_ae63_4f01_b857_9096a2c65356_Class50 ( obj_1e3885aa_8a19_4a51_9667_f2c1b1eccabc o )  ) ) ( type_53c65c00_ae63_4f01_b857_9096a2c65356_Class41 ( obj_1e3885aa_8a19_4a51_9667_f2c1b1eccabc o )  ) )):named c35))
(assert (! (exists ((o Int)) (and (and (and (and (and ( type_53c65c00_ae63_4f01_b857_9096a2c65356_Class41 ( obj_1e3885aa_8a19_4a51_9667_f2c1b1eccabc o )  )  ( type_53c65c00_ae63_4f01_b857_9096a2c65356_Class45 ( obj_1e3885aa_8a19_4a51_9667_f2c1b1eccabc o )  ) ) ( type_53c65c00_ae63_4f01_b857_9096a2c65356_Class12 ( obj_1e3885aa_8a19_4a51_9667_f2c1b1eccabc o )  ) ) ( type_53c65c00_ae63_4f01_b857_9096a2c65356_Class33 ( obj_1e3885aa_8a19_4a51_9667_f2c1b1eccabc o )  ) ) ( type_53c65c00_ae63_4f01_b857_9096a2c65356_Class22 ( obj_1e3885aa_8a19_4a51_9667_f2c1b1eccabc o )  ) ) ( type_53c65c00_ae63_4f01_b857_9096a2c65356_Class39 ( obj_1e3885aa_8a19_4a51_9667_f2c1b1eccabc o )  ) )):named c36))
(assert (! (exists ((o Int)) (and ( type_53c65c00_ae63_4f01_b857_9096a2c65356_Class42 ( obj_1e3885aa_8a19_4a51_9667_f2c1b1eccabc o )  )  ( type_53c65c00_ae63_4f01_b857_9096a2c65356_Class39 ( obj_1e3885aa_8a19_4a51_9667_f2c1b1eccabc o )  ) )):named c37))
(assert (! (exists ((o Int)) ( type_53c65c00_ae63_4f01_b857_9096a2c65356_Class43 ( obj_1e3885aa_8a19_4a51_9667_f2c1b1eccabc o )  ) ):named c38))
(assert (! (exists ((o Int)) (and (and (and (and (and (and (and ( type_53c65c00_ae63_4f01_b857_9096a2c65356_Class44 ( obj_1e3885aa_8a19_4a51_9667_f2c1b1eccabc o )  )  ( type_53c65c00_ae63_4f01_b857_9096a2c65356_Class45 ( obj_1e3885aa_8a19_4a51_9667_f2c1b1eccabc o )  ) ) ( type_53c65c00_ae63_4f01_b857_9096a2c65356_Class12 ( obj_1e3885aa_8a19_4a51_9667_f2c1b1eccabc o )  ) ) ( type_53c65c00_ae63_4f01_b857_9096a2c65356_Class33 ( obj_1e3885aa_8a19_4a51_9667_f2c1b1eccabc o )  ) ) ( type_53c65c00_ae63_4f01_b857_9096a2c65356_Class22 ( obj_1e3885aa_8a19_4a51_9667_f2c1b1eccabc o )  ) ) ( type_53c65c00_ae63_4f01_b857_9096a2c65356_Class29 ( obj_1e3885aa_8a19_4a51_9667_f2c1b1eccabc o )  ) ) ( type_53c65c00_ae63_4f01_b857_9096a2c65356_Class39 ( obj_1e3885aa_8a19_4a51_9667_f2c1b1eccabc o )  ) ) ( type_53c65c00_ae63_4f01_b857_9096a2c65356_Class41 ( obj_1e3885aa_8a19_4a51_9667_f2c1b1eccabc o )  ) )):named c39))
(assert (! (exists ((o Int)) (and (and (and (and ( type_53c65c00_ae63_4f01_b857_9096a2c65356_Class45 ( obj_1e3885aa_8a19_4a51_9667_f2c1b1eccabc o )  )  ( type_53c65c00_ae63_4f01_b857_9096a2c65356_Class12 ( obj_1e3885aa_8a19_4a51_9667_f2c1b1eccabc o )  ) ) ( type_53c65c00_ae63_4f01_b857_9096a2c65356_Class33 ( obj_1e3885aa_8a19_4a51_9667_f2c1b1eccabc o )  ) ) ( type_53c65c00_ae63_4f01_b857_9096a2c65356_Class22 ( obj_1e3885aa_8a19_4a51_9667_f2c1b1eccabc o )  ) ) ( type_53c65c00_ae63_4f01_b857_9096a2c65356_Class39 ( obj_1e3885aa_8a19_4a51_9667_f2c1b1eccabc o )  ) )):named c40))
(assert (! (exists ((o Int)) (and (and ( type_53c65c00_ae63_4f01_b857_9096a2c65356_Class46 ( obj_1e3885aa_8a19_4a51_9667_f2c1b1eccabc o )  )  ( type_53c65c00_ae63_4f01_b857_9096a2c65356_Class39 ( obj_1e3885aa_8a19_4a51_9667_f2c1b1eccabc o )  ) ) ( type_53c65c00_ae63_4f01_b857_9096a2c65356_Class5 ( obj_1e3885aa_8a19_4a51_9667_f2c1b1eccabc o )  ) )):named c41))
(assert (! (exists ((o Int)) ( type_53c65c00_ae63_4f01_b857_9096a2c65356_Class47 ( obj_1e3885aa_8a19_4a51_9667_f2c1b1eccabc o )  ) ):named c42))
(assert (! (exists ((o Int)) (and (and (and (and (and (and (and (and (and ( type_53c65c00_ae63_4f01_b857_9096a2c65356_Class48 ( obj_1e3885aa_8a19_4a51_9667_f2c1b1eccabc o )  )  ( type_53c65c00_ae63_4f01_b857_9096a2c65356_Class45 ( obj_1e3885aa_8a19_4a51_9667_f2c1b1eccabc o )  ) ) ( type_53c65c00_ae63_4f01_b857_9096a2c65356_Class12 ( obj_1e3885aa_8a19_4a51_9667_f2c1b1eccabc o )  ) ) ( type_53c65c00_ae63_4f01_b857_9096a2c65356_Class55 ( obj_1e3885aa_8a19_4a51_9667_f2c1b1eccabc o )  ) ) ( type_53c65c00_ae63_4f01_b857_9096a2c65356_Class33 ( obj_1e3885aa_8a19_4a51_9667_f2c1b1eccabc o )  ) ) ( type_53c65c00_ae63_4f01_b857_9096a2c65356_Class22 ( obj_1e3885aa_8a19_4a51_9667_f2c1b1eccabc o )  ) ) ( type_53c65c00_ae63_4f01_b857_9096a2c65356_Class29 ( obj_1e3885aa_8a19_4a51_9667_f2c1b1eccabc o )  ) ) ( type_53c65c00_ae63_4f01_b857_9096a2c65356_Class39 ( obj_1e3885aa_8a19_4a51_9667_f2c1b1eccabc o )  ) ) ( type_53c65c00_ae63_4f01_b857_9096a2c65356_Class50 ( obj_1e3885aa_8a19_4a51_9667_f2c1b1eccabc o )  ) ) ( type_53c65c00_ae63_4f01_b857_9096a2c65356_Class41 ( obj_1e3885aa_8a19_4a51_9667_f2c1b1eccabc o )  ) )):named c43))
(assert (! (exists ((o Int)) (and (and (and (and (and (and (and (and (and ( type_53c65c00_ae63_4f01_b857_9096a2c65356_Class49 ( obj_1e3885aa_8a19_4a51_9667_f2c1b1eccabc o )  )  ( type_53c65c00_ae63_4f01_b857_9096a2c65356_Class45 ( obj_1e3885aa_8a19_4a51_9667_f2c1b1eccabc o )  ) ) ( type_53c65c00_ae63_4f01_b857_9096a2c65356_Class12 ( obj_1e3885aa_8a19_4a51_9667_f2c1b1eccabc o )  ) ) ( type_53c65c00_ae63_4f01_b857_9096a2c65356_Class55 ( obj_1e3885aa_8a19_4a51_9667_f2c1b1eccabc o )  ) ) ( type_53c65c00_ae63_4f01_b857_9096a2c65356_Class33 ( obj_1e3885aa_8a19_4a51_9667_f2c1b1eccabc o )  ) ) ( type_53c65c00_ae63_4f01_b857_9096a2c65356_Class22 ( obj_1e3885aa_8a19_4a51_9667_f2c1b1eccabc o )  ) ) ( type_53c65c00_ae63_4f01_b857_9096a2c65356_Class29 ( obj_1e3885aa_8a19_4a51_9667_f2c1b1eccabc o )  ) ) ( type_53c65c00_ae63_4f01_b857_9096a2c65356_Class39 ( obj_1e3885aa_8a19_4a51_9667_f2c1b1eccabc o )  ) ) ( type_53c65c00_ae63_4f01_b857_9096a2c65356_Class50 ( obj_1e3885aa_8a19_4a51_9667_f2c1b1eccabc o )  ) ) ( type_53c65c00_ae63_4f01_b857_9096a2c65356_Class41 ( obj_1e3885aa_8a19_4a51_9667_f2c1b1eccabc o )  ) )):named c44))
(assert (! (exists ((o Int)) (and ( type_53c65c00_ae63_4f01_b857_9096a2c65356_Class5 ( obj_1e3885aa_8a19_4a51_9667_f2c1b1eccabc o )  )  ( type_53c65c00_ae63_4f01_b857_9096a2c65356_Class39 ( obj_1e3885aa_8a19_4a51_9667_f2c1b1eccabc o )  ) )):named c45))
(assert (! (exists ((o Int)) (and (and (and (and (and (and (and (and ( type_53c65c00_ae63_4f01_b857_9096a2c65356_Class50 ( obj_1e3885aa_8a19_4a51_9667_f2c1b1eccabc o )  )  ( type_53c65c00_ae63_4f01_b857_9096a2c65356_Class45 ( obj_1e3885aa_8a19_4a51_9667_f2c1b1eccabc o )  ) ) ( type_53c65c00_ae63_4f01_b857_9096a2c65356_Class12 ( obj_1e3885aa_8a19_4a51_9667_f2c1b1eccabc o )  ) ) ( type_53c65c00_ae63_4f01_b857_9096a2c65356_Class55 ( obj_1e3885aa_8a19_4a51_9667_f2c1b1eccabc o )  ) ) ( type_53c65c00_ae63_4f01_b857_9096a2c65356_Class33 ( obj_1e3885aa_8a19_4a51_9667_f2c1b1eccabc o )  ) ) ( type_53c65c00_ae63_4f01_b857_9096a2c65356_Class22 ( obj_1e3885aa_8a19_4a51_9667_f2c1b1eccabc o )  ) ) ( type_53c65c00_ae63_4f01_b857_9096a2c65356_Class29 ( obj_1e3885aa_8a19_4a51_9667_f2c1b1eccabc o )  ) ) ( type_53c65c00_ae63_4f01_b857_9096a2c65356_Class39 ( obj_1e3885aa_8a19_4a51_9667_f2c1b1eccabc o )  ) ) ( type_53c65c00_ae63_4f01_b857_9096a2c65356_Class41 ( obj_1e3885aa_8a19_4a51_9667_f2c1b1eccabc o )  ) )):named c46))
(assert (! (exists ((o Int)) (and (and (and (and (and (and ( type_53c65c00_ae63_4f01_b857_9096a2c65356_Class51 ( obj_1e3885aa_8a19_4a51_9667_f2c1b1eccabc o )  )  ( type_53c65c00_ae63_4f01_b857_9096a2c65356_Class45 ( obj_1e3885aa_8a19_4a51_9667_f2c1b1eccabc o )  ) ) ( type_53c65c00_ae63_4f01_b857_9096a2c65356_Class12 ( obj_1e3885aa_8a19_4a51_9667_f2c1b1eccabc o )  ) ) ( type_53c65c00_ae63_4f01_b857_9096a2c65356_Class33 ( obj_1e3885aa_8a19_4a51_9667_f2c1b1eccabc o )  ) ) ( type_53c65c00_ae63_4f01_b857_9096a2c65356_Class22 ( obj_1e3885aa_8a19_4a51_9667_f2c1b1eccabc o )  ) ) ( type_53c65c00_ae63_4f01_b857_9096a2c65356_Class16 ( obj_1e3885aa_8a19_4a51_9667_f2c1b1eccabc o )  ) ) ( type_53c65c00_ae63_4f01_b857_9096a2c65356_Class39 ( obj_1e3885aa_8a19_4a51_9667_f2c1b1eccabc o )  ) )):named c47))
(assert (! (exists ((o Int)) (and (and (and (and (and ( type_53c65c00_ae63_4f01_b857_9096a2c65356_Class52 ( obj_1e3885aa_8a19_4a51_9667_f2c1b1eccabc o )  )  ( type_53c65c00_ae63_4f01_b857_9096a2c65356_Class45 ( obj_1e3885aa_8a19_4a51_9667_f2c1b1eccabc o )  ) ) ( type_53c65c00_ae63_4f01_b857_9096a2c65356_Class12 ( obj_1e3885aa_8a19_4a51_9667_f2c1b1eccabc o )  ) ) ( type_53c65c00_ae63_4f01_b857_9096a2c65356_Class33 ( obj_1e3885aa_8a19_4a51_9667_f2c1b1eccabc o )  ) ) ( type_53c65c00_ae63_4f01_b857_9096a2c65356_Class22 ( obj_1e3885aa_8a19_4a51_9667_f2c1b1eccabc o )  ) ) ( type_53c65c00_ae63_4f01_b857_9096a2c65356_Class39 ( obj_1e3885aa_8a19_4a51_9667_f2c1b1eccabc o )  ) )):named c48))
(assert (! (exists ((o Int)) ( type_53c65c00_ae63_4f01_b857_9096a2c65356_Class53 ( obj_1e3885aa_8a19_4a51_9667_f2c1b1eccabc o )  ) ):named c49))
(assert (! (exists ((o Int)) ( type_53c65c00_ae63_4f01_b857_9096a2c65356_Class54 ( obj_1e3885aa_8a19_4a51_9667_f2c1b1eccabc o )  ) ):named c50))
(assert (! (exists ((o Int)) (and (and (and (and (and (and (and ( type_53c65c00_ae63_4f01_b857_9096a2c65356_Class55 ( obj_1e3885aa_8a19_4a51_9667_f2c1b1eccabc o )  )  ( type_53c65c00_ae63_4f01_b857_9096a2c65356_Class45 ( obj_1e3885aa_8a19_4a51_9667_f2c1b1eccabc o )  ) ) ( type_53c65c00_ae63_4f01_b857_9096a2c65356_Class12 ( obj_1e3885aa_8a19_4a51_9667_f2c1b1eccabc o )  ) ) ( type_53c65c00_ae63_4f01_b857_9096a2c65356_Class33 ( obj_1e3885aa_8a19_4a51_9667_f2c1b1eccabc o )  ) ) ( type_53c65c00_ae63_4f01_b857_9096a2c65356_Class22 ( obj_1e3885aa_8a19_4a51_9667_f2c1b1eccabc o )  ) ) ( type_53c65c00_ae63_4f01_b857_9096a2c65356_Class29 ( obj_1e3885aa_8a19_4a51_9667_f2c1b1eccabc o )  ) ) ( type_53c65c00_ae63_4f01_b857_9096a2c65356_Class39 ( obj_1e3885aa_8a19_4a51_9667_f2c1b1eccabc o )  ) ) ( type_53c65c00_ae63_4f01_b857_9096a2c65356_Class41 ( obj_1e3885aa_8a19_4a51_9667_f2c1b1eccabc o )  ) )):named c51))
(assert (! (exists ((o Int)) ( type_53c65c00_ae63_4f01_b857_9096a2c65356_Class6 ( obj_1e3885aa_8a19_4a51_9667_f2c1b1eccabc o )  ) ):named c52))
(assert (! (exists ((o Int)) (and (and (and (and (and (and (and (and (and ( type_53c65c00_ae63_4f01_b857_9096a2c65356_Class7 ( obj_1e3885aa_8a19_4a51_9667_f2c1b1eccabc o )  )  ( type_53c65c00_ae63_4f01_b857_9096a2c65356_Class45 ( obj_1e3885aa_8a19_4a51_9667_f2c1b1eccabc o )  ) ) ( type_53c65c00_ae63_4f01_b857_9096a2c65356_Class12 ( obj_1e3885aa_8a19_4a51_9667_f2c1b1eccabc o )  ) ) ( type_53c65c00_ae63_4f01_b857_9096a2c65356_Class55 ( obj_1e3885aa_8a19_4a51_9667_f2c1b1eccabc o )  ) ) ( type_53c65c00_ae63_4f01_b857_9096a2c65356_Class33 ( obj_1e3885aa_8a19_4a51_9667_f2c1b1eccabc o )  ) ) ( type_53c65c00_ae63_4f01_b857_9096a2c65356_Class22 ( obj_1e3885aa_8a19_4a51_9667_f2c1b1eccabc o )  ) ) ( type_53c65c00_ae63_4f01_b857_9096a2c65356_Class29 ( obj_1e3885aa_8a19_4a51_9667_f2c1b1eccabc o )  ) ) ( type_53c65c00_ae63_4f01_b857_9096a2c65356_Class39 ( obj_1e3885aa_8a19_4a51_9667_f2c1b1eccabc o )  ) ) ( type_53c65c00_ae63_4f01_b857_9096a2c65356_Class50 ( obj_1e3885aa_8a19_4a51_9667_f2c1b1eccabc o )  ) ) ( type_53c65c00_ae63_4f01_b857_9096a2c65356_Class41 ( obj_1e3885aa_8a19_4a51_9667_f2c1b1eccabc o )  ) )):named c53))
(assert (! (exists ((o Int)) (and ( type_53c65c00_ae63_4f01_b857_9096a2c65356_Class8 ( obj_1e3885aa_8a19_4a51_9667_f2c1b1eccabc o )  )  ( type_53c65c00_ae63_4f01_b857_9096a2c65356_Class39 ( obj_1e3885aa_8a19_4a51_9667_f2c1b1eccabc o )  ) )):named c54))
(assert (! (exists ((o Int)) ( type_53c65c00_ae63_4f01_b857_9096a2c65356_Class9 ( obj_1e3885aa_8a19_4a51_9667_f2c1b1eccabc o )  ) ):named c55))

 ;end of formula 